NAME (null)_copy
ROWS
 N  OBJ
 E  ROW00005
 E  ROW00007
 L  ROW00009
 E  ROW00010
 E  ROW00015
 E  ROW00023
 E  ROW00025
 L  ROW00027
 E  ROW00028
 E  ROW00031
 E  ROW00032
 E  ROW00033
 E  ROW00035
 E  ROW00036
 E  ROW00042
 E  ROW00044
 L  ROW00046
 E  ROW00047
 E  ROW00049
 E  ROW00050
 E  ROW00051
 E  ROW00052
 L  ROW00053
 E  ROW00054
 E  ROW00055
 E  ROW00061
 E  ROW00063
 L  ROW00065
 E  ROW00066
 E  ROW00068
 E  ROW00069
 E  ROW00070
 E  ROW00071
 L  ROW00072
 E  ROW00073
 E  ROW00074
 E  ROW00080
 E  ROW00082
 L  ROW00084
 E  ROW00085
 E  ROW00087
 E  ROW00088
 E  ROW00089
 E  ROW00090
 L  ROW00091
 E  ROW00092
 E  ROW00093
 E  ROW00099
 E  ROW00101
 L  ROW00103
 E  ROW00104
 E  ROW00106
 E  ROW00107
 E  ROW00108
 E  ROW00109
 L  ROW00110
 E  ROW00111
 E  ROW00112
 E  ROW00118
 E  ROW00120
 L  ROW00122
 E  ROW00126
 E  ROW00127
 E  ROW00128
 L  ROW00129
COLUMNS
    COL00001  OBJ       -112.665
    COL00001  ROW00010  -1
    COL00001  ROW00031  0.245
    COL00001  ROW00015  1.9
    COL00001  ROW00005  2.1
    COL00006  OBJ       -1.4563500000000002e+02
    COL00006  ROW00023  -0.48
    COL00006  ROW00031  -0.735
    COL00006  ROW00005  -2.1
    COL00006  ROW00015  -1.9
    COL00007  OBJ       9.32
    COL00007  ROW00031  0.2
    COL00007  ROW00007  1
    COL00008  OBJ       9.72
    COL00008  ROW00005  1.5
    COL00008  ROW00007  1
    COL00010  OBJ       6.84
    COL00010  ROW00007  1
    COL00010  ROW00009  -1
    COL00010  ROW00015  1
    COL00011  OBJ       15
    COL00011  ROW00005  1
    COL00012  OBJ       22.5
    COL00012  ROW00015  1
    COL00013  ROW00007  1
    COL00014  OBJ       -500
    COL00014  ROW00010  -1
    COL00014  ROW00023  -0.48
    COL00014  ROW00031  -0.49
    COL00019  OBJ       6.0066666666666668e+00
    COL00019  ROW00009  -8.3333333333333337e-01
    COL00019  ROW00007  8.3333333333333337e-01
    COL00019  ROW00032  1
    COL00020  OBJ       0.47
    COL00020  ROW00015  -1
    COL00020  ROW00033  1
    COL00021  OBJ       -113.4
    COL00021  ROW00031  0.245
    COL00021  ROW00028  -1
    COL00021  ROW00033  1.9
    COL00021  ROW00023  2.1
    COL00026  OBJ       -144.9
    COL00026  ROW00050  -0.49
    COL00026  ROW00042  -0.48
    COL00026  ROW00023  -2.1
    COL00026  ROW00031  -0.245
    COL00026  ROW00033  -1.9
    COL00027  OBJ       8.72
    COL00027  ROW00025  1
    COL00027  ROW00031  0.2
    COL00028  OBJ       9.72
    COL00028  ROW00023  1.5
    COL00028  ROW00025  1
    COL00029  OBJ       6.74
    COL00029  ROW00025  1
    COL00029  ROW00027  -1
    COL00029  ROW00032  1.2
    COL00030  OBJ       6.84
    COL00030  ROW00025  1
    COL00030  ROW00027  -1
    COL00030  ROW00033  1
    COL00031  OBJ       15
    COL00031  ROW00023  1
    COL00032  OBJ       22.5
    COL00032  ROW00033  1
    COL00033  ROW00025  1
    COL00034  OBJ       -500
    COL00034  ROW00028  -1
    COL00034  ROW00042  -0.48
    COL00034  ROW00050  -0.49
    COL00035  OBJ       18.7
    COL00035  ROW00028  -1
    COL00035  ROW00042  -0.48
    COL00035  ROW00049  1
    COL00035  ROW00050  -0.49
    COL00037  OBJ       -643.3
    COL00037  ROW00031  -0.49
    COL00037  ROW00023  -0.48
    COL00037  ROW00010  -1
    COL00037  ROW00035  -0.5
    COL00037  ROW00036  -0.5
    COL00037  ROW00042  -9.32
    COL00037  ROW00049  0.7
    COL00037  ROW00050  -0.56
    COL00037  ROW00051  -1
    COL00037  ROW00053  1
    COL00038  OBJ       3
    COL00038  ROW00031  -1
    COL00038  ROW00050  1
    COL00039  OBJ       0.39
    COL00039  ROW00032  -1
    COL00039  ROW00051  1
    COL00040  OBJ       0.47
    COL00040  ROW00033  -1
    COL00040  ROW00052  1
    COL00041  OBJ       -35
    COL00041  ROW00035  1
    COL00044  OBJ       -35
    COL00044  ROW00036  1
    COL00045  OBJ       78.4
    COL00045  ROW00035  1
    COL00045  ROW00042  -2.1
    COL00045  ROW00047  1
    COL00045  ROW00050  -0.245
    COL00045  ROW00052  -1.9
    COL00046  OBJ       -179.9
    COL00046  ROW00036  1
    COL00046  ROW00069  -0.49
    COL00046  ROW00061  -0.48
    COL00046  ROW00042  -2.1
    COL00046  ROW00050  -0.245
    COL00046  ROW00052  -1.9
    COL00047  OBJ       8.72
    COL00047  ROW00044  1
    COL00047  ROW00050  0.2
    COL00048  OBJ       9.72
    COL00048  ROW00042  1.5
    COL00048  ROW00044  1
    COL00049  OBJ       6.74
    COL00049  ROW00044  1
    COL00049  ROW00046  -1
    COL00049  ROW00051  1.2
    COL00050  OBJ       6.84
    COL00050  ROW00044  1
    COL00050  ROW00046  -1
    COL00050  ROW00052  1
    COL00051  OBJ       15
    COL00051  ROW00042  1
    COL00052  OBJ       22.5
    COL00052  ROW00052  1
    COL00053  ROW00044  1
    COL00054  OBJ       -500
    COL00054  ROW00047  -1
    COL00054  ROW00061  -0.48
    COL00054  ROW00069  -0.49
    COL00055  OBJ       18.7
    COL00055  ROW00047  -1
    COL00055  ROW00061  -0.48
    COL00055  ROW00068  1
    COL00055  ROW00069  -0.49
    COL00057  OBJ       -662
    COL00057  ROW00049  -1
    COL00057  ROW00053  -1
    COL00057  ROW00054  -0.5
    COL00057  ROW00055  -0.5
    COL00057  ROW00061  -9.32
    COL00057  ROW00068  0.7
    COL00057  ROW00069  -0.56
    COL00057  ROW00070  -1
    COL00057  ROW00072  1
    COL00058  OBJ       3
    COL00058  ROW00050  -1
    COL00058  ROW00069  1
    COL00059  OBJ       0.39
    COL00059  ROW00051  -1
    COL00059  ROW00070  1
    COL00060  OBJ       0.47
    COL00060  ROW00052  -1
    COL00060  ROW00071  1
    COL00061  OBJ       -35
    COL00061  ROW00054  1
    COL00064  OBJ       -35
    COL00064  ROW00055  1
    COL00065  OBJ       78.4
    COL00065  ROW00054  1
    COL00065  ROW00061  -2.1
    COL00065  ROW00066  1
    COL00065  ROW00069  -0.245
    COL00065  ROW00071  -1.9
    COL00066  OBJ       -179.9
    COL00066  ROW00055  1
    COL00066  ROW00088  -0.49
    COL00066  ROW00080  -0.48
    COL00066  ROW00061  -2.1
    COL00066  ROW00069  -0.245
    COL00066  ROW00071  -1.9
    COL00067  OBJ       8.72
    COL00067  ROW00063  1
    COL00067  ROW00069  0.2
    COL00068  OBJ       9.72
    COL00068  ROW00061  1.5
    COL00068  ROW00063  1
    COL00069  OBJ       6.74
    COL00069  ROW00063  1
    COL00069  ROW00065  -1
    COL00069  ROW00070  1.2
    COL00070  OBJ       6.84
    COL00070  ROW00063  1
    COL00070  ROW00065  -1
    COL00070  ROW00071  1
    COL00071  OBJ       15
    COL00071  ROW00061  1
    COL00072  OBJ       22.5
    COL00072  ROW00071  1
    COL00073  ROW00063  1
    COL00074  OBJ       -500
    COL00074  ROW00066  -1
    COL00074  ROW00080  -0.48
    COL00074  ROW00088  -0.49
    COL00075  OBJ       18.7
    COL00075  ROW00066  -1
    COL00075  ROW00080  -0.48
    COL00075  ROW00087  1
    COL00075  ROW00088  -0.49
    COL00077  OBJ       -662
    COL00077  ROW00068  -1
    COL00077  ROW00072  -1
    COL00077  ROW00073  -0.5
    COL00077  ROW00074  -0.5
    COL00077  ROW00080  -9.32
    COL00077  ROW00087  0.7
    COL00077  ROW00088  -0.56
    COL00077  ROW00089  -1
    COL00077  ROW00091  1
    COL00078  OBJ       3
    COL00078  ROW00069  -1
    COL00078  ROW00088  1
    COL00079  OBJ       0.39
    COL00079  ROW00070  -1
    COL00079  ROW00089  1
    COL00080  OBJ       0.47
    COL00080  ROW00071  -1
    COL00080  ROW00090  1
    COL00081  OBJ       -35
    COL00081  ROW00073  1
    COL00084  OBJ       -35
    COL00084  ROW00074  1
    COL00085  OBJ       78.4
    COL00085  ROW00073  1
    COL00085  ROW00080  -2.1
    COL00085  ROW00085  1
    COL00085  ROW00088  -0.245
    COL00085  ROW00090  -1.9
    COL00086  OBJ       -179.9
    COL00086  ROW00074  1
    COL00086  ROW00107  -0.49
    COL00086  ROW00099  -0.48
    COL00086  ROW00080  -2.1
    COL00086  ROW00088  -0.245
    COL00086  ROW00090  -1.9
    COL00087  OBJ       8.72
    COL00087  ROW00082  1
    COL00087  ROW00088  0.2
    COL00088  OBJ       9.72
    COL00088  ROW00080  1.5
    COL00088  ROW00082  1
    COL00089  OBJ       6.74
    COL00089  ROW00082  1
    COL00089  ROW00084  -1
    COL00089  ROW00089  1.2
    COL00090  OBJ       6.84
    COL00090  ROW00082  1
    COL00090  ROW00084  -1
    COL00090  ROW00090  1
    COL00091  OBJ       15
    COL00091  ROW00080  1
    COL00092  OBJ       22.5
    COL00092  ROW00090  1
    COL00093  ROW00082  1
    COL00094  OBJ       -500
    COL00094  ROW00085  -1
    COL00094  ROW00099  -0.48
    COL00094  ROW00107  -0.49
    COL00095  OBJ       18.7
    COL00095  ROW00085  -1
    COL00095  ROW00099  -0.48
    COL00095  ROW00106  1
    COL00095  ROW00107  -0.49
    COL00097  OBJ       -662
    COL00097  ROW00087  -1
    COL00097  ROW00091  -1
    COL00097  ROW00092  -0.5
    COL00097  ROW00093  -0.5
    COL00097  ROW00099  -9.32
    COL00097  ROW00106  0.7
    COL00097  ROW00107  -0.56
    COL00097  ROW00108  -1
    COL00097  ROW00110  1
    COL00098  OBJ       3
    COL00098  ROW00088  -1
    COL00098  ROW00107  1
    COL00099  OBJ       0.39
    COL00099  ROW00089  -1
    COL00099  ROW00108  1
    COL00100  OBJ       0.47
    COL00100  ROW00090  -1
    COL00100  ROW00109  1
    COL00101  OBJ       -35
    COL00101  ROW00092  1
    COL00104  OBJ       -35
    COL00104  ROW00093  1
    COL00105  OBJ       78.4
    COL00105  ROW00092  1
    COL00105  ROW00099  -2.1
    COL00105  ROW00104  1
    COL00105  ROW00107  -0.245
    COL00105  ROW00109  -1.9
    COL00106  OBJ       -179.9
    COL00106  ROW00093  1
    COL00106  ROW00126  -0.49
    COL00106  ROW00118  -0.48
    COL00106  ROW00099  -2.1
    COL00106  ROW00107  -0.245
    COL00106  ROW00109  -1.9
    COL00107  OBJ       8.72
    COL00107  ROW00101  1
    COL00107  ROW00107  0.2
    COL00108  OBJ       9.72
    COL00108  ROW00099  1.5
    COL00108  ROW00101  1
    COL00109  OBJ       6.74
    COL00109  ROW00101  1
    COL00109  ROW00103  -1
    COL00109  ROW00108  1.2
    COL00110  OBJ       6.84
    COL00110  ROW00101  1
    COL00110  ROW00103  -1
    COL00110  ROW00109  1
    COL00111  OBJ       15
    COL00111  ROW00099  1
    COL00112  OBJ       22.5
    COL00112  ROW00109  1
    COL00113  ROW00101  1
    COL00114  OBJ       -500
    COL00114  ROW00104  -1
    COL00114  ROW00118  -0.48
    COL00114  ROW00126  -0.49
    COL00115  OBJ       -643.3
    COL00115  ROW00129  -1
    COL00115  ROW00104  -1
    COL00115  ROW00118  -0.48
    COL00115  ROW00126  -0.49
    COL00117  OBJ       -1125.4
    COL00117  ROW00106  -1
    COL00117  ROW00110  -1
    COL00117  ROW00111  -0.5
    COL00117  ROW00112  -0.5
    COL00117  ROW00118  -9.32
    COL00117  ROW00126  -0.56
    COL00117  ROW00127  -1
    COL00117  ROW00129  3.0000000000000004e-01
    COL00118  OBJ       3
    COL00118  ROW00107  -1
    COL00118  ROW00126  1
    COL00119  OBJ       0.39
    COL00119  ROW00108  -1
    COL00119  ROW00127  1
    COL00120  OBJ       0.47
    COL00120  ROW00109  -1
    COL00120  ROW00128  1
    COL00121  OBJ       -35
    COL00121  ROW00111  1
    COL00124  OBJ       -35
    COL00124  ROW00112  1
    COL00125  OBJ       -421.6
    COL00125  ROW00111  1
    COL00125  ROW00118  -2.1
    COL00125  ROW00126  -0.245
    COL00125  ROW00128  -1.9
    COL00126  OBJ       -179.9
    COL00126  ROW00112  1
    COL00126  ROW00118  -2.1
    COL00126  ROW00126  -0.245
    COL00126  ROW00128  -1.9
    COL00127  OBJ       8.72
    COL00127  ROW00120  1
    COL00127  ROW00126  0.2
    COL00128  OBJ       9.72
    COL00128  ROW00118  1.5
    COL00128  ROW00120  1
    COL00129  OBJ       6.74
    COL00129  ROW00120  1
    COL00129  ROW00122  -1
    COL00129  ROW00127  1.2
    COL00130  OBJ       6.84
    COL00130  ROW00120  1
    COL00130  ROW00122  -1
    COL00130  ROW00128  1
    COL00131  OBJ       15
    COL00131  ROW00118  1
    COL00132  OBJ       22.5
    COL00132  ROW00128  1
    COL00133  ROW00120  1
    COL00138  OBJ       3
    COL00138  ROW00126  -1
    COL00139  OBJ       0.39
    COL00139  ROW00127  -1
    COL00140  OBJ       0.47
    COL00140  ROW00128  -1
RHS
    RHS1      OBJ       2.4197629799999998e+05
    RHS1      ROW00005  3.4247599999999998e+03
    RHS1      ROW00007  7470
    RHS1      ROW00009  -1370
    RHS1      ROW00010  -420.64
    RHS1      ROW00015  150.2
    RHS1      ROW00023  3764.7568
    RHS1      ROW00025  6900
    RHS1      ROW00027  -800
    RHS1      ROW00028  -187.6
    RHS1      ROW00031  7.3970400000000012e+01
    RHS1      ROW00032  375.2
    RHS1      ROW00033  356.44
    RHS1      ROW00044  6900
    RHS1      ROW00046  -800
    RHS1      ROW00063  6900
    RHS1      ROW00065  -800
    RHS1      ROW00082  6900
    RHS1      ROW00084  -800
    RHS1      ROW00101  6900
    RHS1      ROW00103  -800
    RHS1      ROW00120  6900
    RHS1      ROW00122  -800
BOUNDS
 UP BND1      COL00001  4.5486439999999995e+01
 UP BND1      COL00006  158
 UP BND1      COL00007  6906.901
 UP BND1      COL00008  2.5068787066666669e+03
 UP BND1      COL00010  1652.0514
 UP BND1      COL00011  3760.31756
 UP BND1      COL00012  1652.0514
 UP BND1      COL00013  1600
 UP BND1      COL00014  4.5486439999999995e+01
 LO BND1      COL00019  684
 UP BND1      COL00019  2400
 UP BND1      COL00020  1200
 UP BND1      COL00021  187.7886
 UP BND1      COL00026  187.6
 UP BND1      COL00027  6906.901
 UP BND1      COL00028  2566.67
 UP BND1      COL00029  1.7444103333333333e+03
 UP BND1      COL00030  1.9147938800000002e+03
 UP BND1      COL00031  4462.7344752
 UP BND1      COL00032  1.9147938800000002e+03
 UP BND1      COL00033  1600
 UP BND1      COL00034  187.7886
 UP BND1      COL00035  187.7886
 LO BND1      COL00037  375.2
 UP BND1      COL00037  421.06164
 UP BND1      COL00038  1800
 LO BND1      COL00039  3.0849020000000019e+02
 UP BND1      COL00039  2400
 UP BND1      COL00040  1200
 UP BND1      COL00041  210.53132
 UP BND1      COL00044  210.53132
 UP BND1      COL00045  210.53132
 UP BND1      COL00046  210.53132
 UP BND1      COL00047  6906.901
 UP BND1      COL00048  2566.67
 UP BND1      COL00049  2095.2942
 UP BND1      COL00050  2.0012162159999998e+03
 UP BND1      COL00051  5.0789276528000009e+03
 UP BND1      COL00052  2.0012162159999998e+03
 UP BND1      COL00053  1600
 UP BND1      COL00054  210.53132
 UP BND1      COL00055  210.53132
 LO BND1      COL00057  374.8238
 UP BND1      COL00057  482.531048
 UP BND1      COL00058  1800
 UP BND1      COL00059  2400
 UP BND1      COL00060  1200
 UP BND1      COL00061  241.266024
 UP BND1      COL00064  241.266024
 UP BND1      COL00065  241.266024
 UP BND1      COL00066  241.266024
 UP BND1      COL00067  6906.901
 UP BND1      COL00068  2566.67
 UP BND1      COL00069  2.4041093733333332e+03
 UP BND1      COL00070  2118.0080912
 UP BND1      COL00071  5.8136578089600016e+03
 UP BND1      COL00072  2118.0080912
 UP BND1      COL00073  1600
 UP BND1      COL00074  241.266024
 UP BND1      COL00075  241.266024
 LO BND1      COL00077  374.8238
 UP BND1      COL00077  5.4830235360000006e+02
 UP BND1      COL00078  1800
 UP BND1      COL00079  2400
 UP BND1      COL00080  1200
 UP BND1      COL00081  274.1516768
 UP BND1      COL00084  274.1516768
 UP BND1      COL00085  274.1516768
 UP BND1      COL00086  274.1516768
 UP BND1      COL00087  6906.901
 UP BND1      COL00088  2566.67
 UP BND1      COL00089  2.4589187946666671e+03
 UP BND1      COL00090  2.2429735718399997e+03
 UP BND1      COL00091  6609.024092672
 UP BND1      COL00092  2.2429735718399997e+03
 UP BND1      COL00093  1600
 UP BND1      COL00094  274.1516768
 UP BND1      COL00095  274.1516768
 LO BND1      COL00097  374.8238
 UP BND1      COL00097  6.2507697151999992e+02
 UP BND1      COL00098  1800
 UP BND1      COL00099  2400
 UP BND1      COL00100  1200
 UP BND1      COL00101  312.53898576
 UP BND1      COL00104  312.53898576
 UP BND1      COL00105  312.53898576
 UP BND1      COL00106  312.53898576
 UP BND1      COL00107  6906.901
 UP BND1      COL00108  2566.67
 UP BND1      COL00109  2.5228976429333334e+03
 UP BND1      COL00110  2388.845345888
 UP BND1      COL00111  7.5331455693503995e+03
 UP BND1      COL00112  2388.845345888
 UP BND1      COL00113  1600
 UP BND1      COL00114  312.53898576
 LO BND1      COL00115  112.44644
 UP BND1      COL00115  312.53898576
 LO BND1      COL00117  374.8238
 UP BND1      COL00117  7.1170485686399991e+02
 UP BND1      COL00118  1800
 UP BND1      COL00119  2400
 UP BND1      COL00120  1200
 UP BND1      COL00121  3.5585292843199994e+02
 UP BND1      COL00124  3.5585292843199994e+02
 UP BND1      COL00125  3.5585292843199994e+02
 UP BND1      COL00126  3.5585292843199994e+02
 UP BND1      COL00127  6906.901
 UP BND1      COL00128  2566.67
 UP BND1      COL00129  6906.901
 UP BND1      COL00130  6906.901
 UP BND1      COL00131  8.5777137448812809e+03
 UP BND1      COL00133  1600
 UP BND1      COL00138  2.9728588879999998e+03
 UP BND1      COL00139  10315.1058
ENDATA
